44
75
60	3
59	2
58	2
57	1
56	2
55	1
54	1
53	3
52	4
51	2
50	2
49	1
48	3
47	1
46	2
45	3
44	5
43	1
42	1
41	2
40	2
39	3
38	2
37	3
36	2
35	1
33	1
32	3
31	4
30	1
29	1
28	2
27	4
26	3
25	2
24	2
23	3
21	2
20	3
19	1
18	3
17	2
16	5
15	3
